c 7 = g5
c 8 = g4
c 9 = g3
c 10 = g2
c 11 = g1
c 12 = r1
c 5 = m1
c 3 = e8
c 6 = m2
c 1 = e5
c 2 = e1
c 4 = e2
c
n 6
c
b 7 1 4
b 8 5 7
b 9 8 10
b 10 11 13
b 11 14 16
b 12 17 19
c
p cnf 12 20
12 0
7 -3 0
7 -1 0
7 -6 0
-7 3 1 6 0
-8 1 0
-8 5 0
8 -1 -5 0
9 -8 0
9 -6 0
-9 8 6 0
-10 4 0
-10 9 0
10 -4 -9 0
11 -2 0
11 -10 0
-11 2 10 0
-12 11 0
-12 7 0
12 -11 -7 0